c ren 1 -> 1
c ren 2 -> 2
c ren 6 -> 3
c ren 8 -> 4
c ren 9 -> 5
c ren 11 -> 6
c ren 13 -> 7
c ren 21 -> 8
c ren 22 -> 9
c ren 24 -> 10
c ren 29 -> 11
c ren 30 -> 12
c ren 32 -> 13
c ren 36 -> 14
c ren 37 -> 15
c ren 38 -> 16
c ren 41 -> 17
c ren 44 -> 18
c ren 45 -> 19
c ren 47 -> 20
c ren 49 -> 21
c ren 54 -> 22
c ren 64 -> 23
c ren 74 -> 24
c ren 86 -> 25
c ren 91 -> 26
c ren 103 -> 27
c ren 104 -> 28
c ren 109 -> 29
c ren 117 -> 30
c ren 125 -> 31
c ren 133 -> 32
c ren 141 -> 33
p cnf 33 197
a 1 2 4 5 6 7 8 9 11 12 15 16 18 19 23 24 26 28 29 30 31 32 33 0
d 10 4 23 0
d 13 8 24 0
d 20 15 26 0
d 22 1 7 0
d 25 11 16 0
d 27 18 28 0
e 3 14 17 21 0
-5 -9 -10 14 -17 -21 0
14 -17 20 -21 -23 32 -33 0
-1 2 3 0
1 -2 3 0
-1 -2 -3 0
1 2 -3 0
-7 14 -17 20 -21 32 -33 0
-6 14 -17 20 -21 32 -33 0
2 5 6 7 9 12 14 16 -17 20 -21 23 24 26 28 -31 0
-2 -13 14 16 -17 -21 -26 0
-5 -10 14 -17 -21 -24 0
2 5 6 7 -9 10 14 -17 -21 23 0
-6 -12 -13 14 -17 -21 0
2 -3 -4 5 6 7 8 -9 11 13 -14 0
2 -3 -4 5 6 7 8 -9 -11 12 -13 -14 0
-3 4 -5 8 10 -11 12 -13 -14 0
2 -3 -4 5 6 7 8 10 -11 12 -13 -14 0
2 -3 -4 5 6 7 8 -9 11 -12 -14 0
2 -3 -4 5 6 7 8 10 11 -12 -14 0
-3 4 -5 8 10 11 13 -14 0
-3 4 -5 -8 9 -10 11 13 -14 0
-5 -13 14 16 -17 -21 -26 0
3 14 0
2 5 6 7 9 -12 13 14 -17 -21 23 24 0
-12 15 17 0
-5 14 -17 -21 -25 0
-3 4 -5 8 10 11 -12 -14 0
13 15 17 0
-6 -9 -10 14 -17 -21 0
2 5 6 7 9 12 14 16 -17 20 -21 23 24 26 28 -32 0
-5 14 -17 20 -21 32 -33 0
-13 14 16 -17 -21 -24 -26 0
15 -16 17 0
-9 -13 14 16 -17 -21 -26 0
-18 19 -20 21 0
2 5 6 7 9 13 14 16 -17 -21 23 24 -26 0
14 -17 -19 -21 32 -33 0
14 -17 19 -20 -21 28 29 30 31 -32 33 0
-5 14 -17 -21 -27 0
-6 14 -17 -21 -25 0
14 -17 20 -21 -23 32 33 0
2 -7 14 -17 -21 22 0
-6 14 -17 -20 -21 28 -32 0
-6 14 -17 -20 -21 28 -29 0
-6 14 -17 -20 -21 28 -31 0
-3 4 -6 -8 9 -10 -11 12 -13 -14 0
-2 14 -17 -21 -22 0
-3 4 -6 -8 9 -10 11 13 -14 0
-2 14 -17 20 -21 32 -33 0
-6 14 -17 -19 -20 -21 0
-6 14 -17 20 -21 32 33 0
-3 4 -6 -8 9 -10 11 -12 -14 0
-3 4 -6 8 -9 11 -12 -14 0
-6 -10 14 -17 -21 -24 0
2 5 6 7 10 14 -17 -21 23 -24 0
-6 14 -17 -21 -27 0
-3 4 -6 8 -9 -11 12 -13 -14 0
-3 4 -6 8 10 -11 12 -13 -14 0
2 5 6 7 9 12 14 16 -17 20 -21 23 24 26 28 -29 0
-6 14 -17 -20 -21 28 -30 0
-5 14 -17 -20 -21 28 -30 0
-3 4 -6 8 -9 11 13 -14 0
-3 4 -6 8 10 11 13 -14 0
-5 -12 -13 14 -17 -21 0
-2 -9 -10 14 -17 -21 0
-5 14 -17 20 -21 32 33 0
-3 4 -5 8 -9 -11 12 -13 -14 0
14 -17 -21 -23 -25 0
-3 4 -5 8 -9 11 13 -14 0
-10 14 -17 -21 -23 -24 0
14 -17 -21 -23 -27 0
2 -3 -4 5 6 7 -8 9 -10 11 -12 -14 0
14 -17 -19 -20 -21 -23 0
14 -17 -20 -21 -23 28 -31 0
-12 -13 14 -17 -21 -23 0
-3 4 -6 8 10 11 -12 -14 0
14 -17 -20 -21 -23 28 -29 0
2 -3 -4 5 6 7 -8 9 -10 11 13 -14 0
-5 14 -17 -19 -20 -21 0
-2 -12 -13 14 -17 -21 0
-9 14 -17 -21 -25 0
2 5 6 7 9 12 14 16 -17 19 -21 23 24 26 27 -28 0
-9 14 -17 20 -21 32 -33 0
-9 -12 -13 14 -17 -21 0
-5 14 -17 -20 -21 28 -29 0
-5 14 -17 -20 -21 28 -31 0
14 -17 -20 -21 -23 28 -30 0
-3 4 -5 -8 9 -10 -11 12 -13 -14 0
14 -17 -20 -21 -23 28 -32 0
-9 -10 14 -17 -21 -23 0
2 -3 -4 5 6 7 8 10 11 13 -14 0
-12 -13 14 -17 -21 -24 0
-2 14 -17 -21 -25 0
-13 14 16 -17 -21 -23 -26 0
2 5 6 7 9 12 14 16 -17 -20 -21 23 24 26 32 33 0
14 -16 -17 20 -21 32 -33 0
14 -17 -21 -24 -25 0
2 5 6 7 9 12 14 16 -17 20 -21 23 24 26 28 -30 0
-9 14 -17 -20 -21 28 -29 0
-9 14 -17 -20 -21 28 -31 0
14 -16 -17 20 -21 32 33 0
-9 14 -17 -20 -21 28 -30 0
-9 14 -17 -21 -27 0
-9 14 -17 20 -21 32 33 0
-12 14 -17 -19 -20 -21 0
-12 14 -17 20 -21 32 -33 0
14 -17 20 -21 -26 32 -33 0
-3 4 -5 8 -9 11 -12 -14 0
-9 14 -17 -20 -21 28 -32 0
14 -17 -20 -21 -24 28 -29 0
14 -17 -20 -21 -24 28 -31 0
14 -17 20 -21 -26 32 33 0
14 -17 -20 -21 -24 28 -30 0
2 5 6 7 9 12 14 16 -17 -19 20 -21 23 24 26 0
-9 14 -17 -19 -20 -21 0
-6 -13 14 16 -17 -21 -26 0
-12 14 -17 -21 -27 0
-2 14 -17 -19 -20 -21 0
14 -16 -17 -21 -27 0
-5 14 -17 -20 -21 28 -32 0
-12 14 -17 -20 -21 28 -31 0
14 -17 -20 -21 -24 28 -32 0
14 -16 -17 -19 -20 -21 0
-12 14 -17 -20 -21 28 -30 0
-12 14 -17 -20 -21 28 -29 0
14 -17 -21 -24 -27 0
-12 14 -17 -21 -25 0
12 -13 -15 16 17 0
-2 14 -17 -21 -27 0
14 -17 -19 -20 -21 -26 0
-2 14 -17 -20 -21 28 -30 0
18 20 21 0
14 -17 20 -21 -24 32 -33 0
-12 14 -17 -20 -21 28 -32 0
14 -16 -17 -20 -21 28 -29 0
14 -17 -21 -26 -27 0
2 -3 -4 5 6 7 -8 9 -10 -11 12 -13 -14 0
14 -16 -17 -20 -21 28 -30 0
-12 14 -17 20 -21 32 33 0
14 -16 -17 -20 -21 28 -31 0
14 -17 -19 -20 -21 -24 0
-2 14 -17 -20 -21 28 -32 0
14 -17 -19 -21 32 33 0
-2 -10 14 -17 -21 -24 0
-3 4 -5 -8 9 -10 11 -12 -14 0
-2 14 -17 -20 -21 28 -29 0
-2 -3 4 -8 9 -10 11 -12 -14 0
-2 -3 4 -8 9 -10 -11 12 -13 -14 0
-2 14 -17 -20 -21 28 -31 0
-2 -3 4 8 -9 -11 12 -13 -14 0
14 -17 -20 -21 -26 28 -31 0
14 -17 -21 -28 32 -33 0
-2 -3 4 8 10 11 -12 -14 0
14 -17 20 -21 -24 32 33 0
-2 -3 4 8 10 11 13 -14 0
-7 -9 -10 14 -17 -21 0
-7 -13 14 16 -17 -21 -26 0
-7 -10 14 -17 -21 -24 0
-7 14 -17 -21 -25 0
-7 -12 -13 14 -17 -21 0
14 -17 -20 -21 -26 28 -32 0
-2 -3 4 -8 9 -10 11 13 -14 0
-7 14 -17 -19 -20 -21 0
14 -17 -20 -21 -26 28 -30 0
-2 -3 4 8 -9 11 -12 -14 0
-7 14 -17 -20 -21 28 -30 0
-7 14 -17 -20 -21 28 -32 0
14 -17 -21 -29 32 33 0
14 -17 -21 -29 32 -33 0
-7 14 -17 -20 -21 28 -31 0
2 5 6 7 9 12 14 16 -17 -20 -21 23 24 26 32 -33 0
-3 4 -7 -8 9 -10 11 -12 -14 0
-3 4 -7 -8 9 -10 11 13 -14 0
-3 4 -7 -8 9 -10 -11 12 -13 -14 0
-3 4 -7 8 -9 11 -12 -14 0
-3 4 -7 8 -9 -11 12 -13 -14 0
18 -19 21 0
-7 14 -17 20 -21 32 33 0
-3 4 -7 8 10 -11 12 -13 -14 0
14 -17 -20 -21 -26 28 -29 0
-2 -3 4 8 -9 11 13 -14 0
14 -17 -21 -30 32 33 0
-7 14 -17 -21 -27 0
14 -17 -21 -30 32 -33 0
14 -17 -21 -28 32 33 0
-3 4 -7 8 -9 11 13 -14 0
14 -17 -21 -31 32 -33 0
-2 -3 4 8 10 -11 12 -13 -14 0
2 5 6 7 9 12 14 -16 -17 -21 23 24 25 0
-3 4 -7 8 10 11 13 -14 0
-7 14 -17 -20 -21 28 -29 0
14 -16 -17 -20 -21 28 -32 0
14 -17 -21 -31 32 33 0
-3 4 -7 8 10 11 -12 -14 0
14 -17 19 -20 -21 28 29 30 31 -32 -33 0
-2 14 -17 20 -21 32 33 0
14 -17 -19 -21 -27 0
